55184
0 32 7621
32 41 4807
41 44 1302
44 10 436
10 24 545
24 51 874
51 1 598
1 13 433
13 8 471
8 11 723
11 17 768
17 3 606
3 29 380
29 46 944
46 53 491
53 33 401
33 52 396
52 22 388
22 20 176
20 9 764
9 21 117
21 28 544
28 16 1002
16 47 415
47 18 897
18 40 1369
40 31 362
31 43 676
43 7 383
7 37 368
37 49 1180
49 19 763
19 23 740
23 34 296
34 4 323
4 36 467
36 6 517
6 39 1176
39 50 1042
50 12 644
12 42 790
42 2 1096
2 5 385
5 27 404
27 54 487
54 25 397
25 48 560
48 15 2998
15 38 451
38 45 214
45 35 402
35 14 679
14 30 1333
30 26 4460
26 0 4123
